benchmarks/VRPTW/TSPTW/solution/n200w40.001.txt.solution
1 47 32 59 113 173 119 127 187 91 85 55 158 184 76 115 56 7 154 142 101 105 175 10 167 73 168 196 66 8 112 128 159 61 200 157 191 116 52 75 132 183 194 156 143 70 161 38 19 39 165 20 6 78 100 99 21 83 109 28 135 18 35 15 64 27 13 148 94 62 177 144 125 92 198 169 185 190 192 188 77 145 16 33 126 140 23 22 81 34 139 118 90 160 164 46 68 122 11 44 53 123 106 30 170 134 199 149 179 40 147 54 195 84 50 151 166 174 67 95 93 88 89 172 58 60 25 80 155 82 104 197 153 43 182 97 138 103 108 3 86 152 26 69 45 96 186 57 180 17 65 2 51 24 162 163 150 79 178 48 111 12 121 42 114 74 120 189 146 193 49 181 72 37 87 9 102 171 63 71 98 31 124 29 36 107 141 131 133 137 129 117 41 136 14 4 5 130 201 176 110 
1023
